(set-info :smt-lib-version 2.6)
(set-option :produce-assignments true)
(set-logic BPA)
(set-info :source | Kaya Guvendi and Ethan Bogle |)
(set-info :category "crafted")
(set-info :status unsat)
(declare-const p Pointer)
(declare-const p_to_b Pointer)
(declare-const q Pointer)
(assert (not (= (+ (Base (Block p)) (Offset p)) 0)))
(assert (not (= (+ (Base (Block p_to_b)) (Offset p_to_b)) 0)))
(assert (=p q (+p p_to_b -1)))
(assert (= (+ (Base (Block p_to_b)) (Offset p_to_b)) (+ (+ (Base (Block p)) (Offset p)) 8)))
(assert (not (= (+ (Base (Block p)) (Offset p)) (+ (Base (Block q)) (Offset q)))))
(check-sat)
(exit)